c Sudoku solution
p cnf 729 0
129 0
158 0
165 0
183 0
235 0
253 0
347 0
389 0
415 0
431 0
459 0
486 0
578 0
633 0
642 0
668 0
428 0
721 0
756 0
799 0
679 0
816 0
626 0
844 0
443 0
593 0
917 0
614 0
519 0
948 0
745 0
249 0
991 0
976 0
952 0
112 0
546 0
141 0
354 0
323 0
713 0
767 0
851 0
873 0
869 0
963 0
939 0
561 0
681 0
464 0
584 0
695 0
555 0
657 0
375 0
311 0
218 0
336 0
196 0
266 0
362 0
282 0
271 0
398 0
177 0
294 0
134 0
227 0
924 0
825 0
985 0
522 0
537 0
774 0
472 0
497 0
788 0
732 0
838 0
887 0
892 0
